CMD:
./solvers/bin/cadical --plain --no-reduce -t 1600 ./data/cnfs//boblivear/boblivear.21.cnf

c --- [ banner ] -------------------------------------------------------------
c 
c CaDiCaL SAT Solver
c Copyright (c) 2016-2024
c A. Biere, M. Fleury, N. Froleyks, K. Fazekas, F. Pollitt, T. Faller
c JKU Linz, University of Freiburg, TU Wien
c 
c Version 2.1.3 5296d3d2a9bf48c154ab2acb5e44625776d821bf
c g++ (Gentoo 12.3.1_p20230526 p2) 12.3.1 20230526 -Wall -Wextra -O3 -DNDEBUG
c Sat Aug 9 07:26:21 PDT 2025 Linux cedar2.int.cedar.computecanada.ca 5.14.0-362.24.2.el9_3.x86_64 x86_64
c 
c --- [ limit ] --------------------------------------------------------------
c 
c setting time limit to 1600 seconds real time (due to '-t 1600')
c 
c --- [ parsing input ] ------------------------------------------------------
c 
c reading DIMACS file from './data/cnfs//boblivear/boblivear.21.cnf'
c opening file to read './data/cnfs//boblivear/boblivear.21.cnf'
c found 'p cnf 7293 21329' header
c parsed 21329 clauses in 0.00 seconds process time
c 
c --- [ options ] ------------------------------------------------------------
c 
c   --compact=false                (different from default 'true')
c   --decompose=false              (different from default 'true')
c   --deduplicate=false            (different from default 'true')
c   --elim=false                   (different from default 'true')
c   --probe=false                  (different from default 'true')
c   --reduce=false                 (different from default 'true')
c   --subsume=false                (different from default 'true')
c   --ternary=false                (different from default 'true')
c   --transred=false               (different from default 'true')
c   --vivify=false                 (different from default 'true')
c 
c --- [ solving ] ------------------------------------------------------------
c 
c time measured in process time since initialization
c 
c  seconds  reductions  redundant  irredundant
c         MB    restarts       trail     variables
c          level   conflicts       glue       remaining
c 
c *  0.00  7  0 0   0    0    0  0% 0 19489 6324 87%
c {  0.01  7  0 0   0    0    0  0% 0 19489 6324 87%
c i  0.01  7 16 0   0    9    8 35% 2 19489 6319 87%
c i  0.01  7 44 0   4   67   51 51% 4 19489 6314 87%
c i  0.01  7 48 0   8  153  125 52% 4 19489 6309 87%
c i  0.02  8 36 0  33  438  394 46% 5 19489 6304 86%
c i  0.04  8 31 0  66  961  860 46% 5 19489 5889 81%
c }  0.04  8 30 0  66 1000  892 46% 5 19489 5798 80%
c [  0.04  8  0 0  66 1000  892  0% 0 19489 5798 80%
c O  0.04  8 25 0  66 1003  895 56% 6 19489 5766 79%
c ]  0.12  8 21 0  67 3002 2730 71% 7 19489 5766 79%
c {  0.12  8 30 0  67 3002 2730 46% 5 19489 5766 79%
c F  0.12  8 30 0  67 3004 2732 46% 5 19489 5766 79%
c i  0.14  8 27 0 103 3422 3102 50% 5 19489 5760 79%
c i  0.15  8 27 0 119 3570 3227 51% 5 19489 5540 76%
c i  0.20  8 23 0 219 5026 4521 58% 5 19489 5510 76%
c i  0.21  9 22 0 221 5145 4609 58% 5 19489 5500 75%
c #  0.25  9 21 0 294 6006 5393 59% 5 19489 5500 75%
c }  0.30  9 20 0 346 7003 6278 60% 4 19489 5500 75%
c [  0.30  9 21 0 346 7003 6278 71% 7 19489 5500 75%
c 
c  seconds  reductions  redundant  irredundant
c         MB    restarts       trail     variables
c          level   conflicts       glue       remaining
c 
c i  0.30  9 21 0 346 7057 6307 70% 7 19489 5460 75%
c i  0.33  9 18 0 347 7589 6729 69% 6 19489 5457 75%
c ]  0.33  9 18 0 347 7592 6730 69% 6 19489 4790 66%
c 0  0.33  9 18 0 347 7592 6730 69% 6 19489 4790 66%
c 
c --- [ result ] -------------------------------------------------------------
c 
s UNSATISFIABLE
c 
c --- [ run-time profiling ] -------------------------------------------------
c 
c process time taken by individual solving procedures
c (percentage relative to process time for solving)
c 
c         0.32   99.98% search
c         0.21   64.62% unstable
c         0.11   35.14% stable
c         0.00    1.29% parse
c         0.00    0.18% lucky
c         0.00    0.00% simplify
c   =================================
c         0.32   98.63% solve
c 
c last line shows process time for solving
c (percentage relative to total process time)
c 
c --- [ statistics ] ---------------------------------------------------------
c 
c chronological:              2205        29.04 %  of conflicts
c conflicts:                  7592     23623.71    per second
c decisions:                 16665     51855.79    per second
c fixed:                      2503        34.32 %  of all variables
c learned:                    7273        95.80 %  per conflict
c learned_lits:             162800       100.00 %  learned literals
c minimized:                     0         0.00 %  learned literals
c shrunken:                  28672        17.61 %  learned literals
c minishrunken:              28758        17.66 %  learned literals
c otfs:                         55         0.72 %  of conflict
c propagations:            3568682        11.10 M  per second
c rephased:                      3      2530.67    interval
c restarts:                    347        21.88    interval
c stabilizing:                   2        34.13 %  of conflicts
c subsumed:                    531         1.99 %  of all clauses
c strengthened:                 55         0.21 %  of all clauses
c 
c seconds are measured in process time for solving
c 
c --- [ resources ] ----------------------------------------------------------
c 
c total process time since initialization:         0.33    seconds
c total real time since initialization:            0.33    seconds
c maximum resident set size of process:           30.80    MB
c 
c --- [ shutting down ] ------------------------------------------------------
c 
c exit 20
